1087
1849
2172
2461
2766
3009
2618
2335
1586
1314
3555
1384
2529
2996
3025
783
611
442
382
2209
1193
675
1151
1954
1760
1883
1302
549
2428
1967
1232
2425
1343
2850
2145
526
3191
831
3791
3555
1223
3556
2621
993
3802
1914
940
1665
2639
1519
2181
1786
1667
1445
1216
2219
3236
532
2748
419
1544
1856
1667
3847
965
1360
1110
545
2742
1843
2462
2561
3804
1784
2716
3187
264
1339
3264
918

40675
72323
81659
94943
128746
167883

793
1410
1592
1851
2510
3273

5714.5

33
59
66
77
104
136
87
88
67
33
147
49
79
116
116
25
18
11
7
89
34
1
48
80
66
59
38
4
118
74
16
115
66
136
92
8
118
28
149
134
36
128
107
2
141
90
2
79
127
45
101
80
42
56
56
103
136
14
111
13
34
48
76
149
26
28
31
26
121
78
97
96
142
64
92
149
3
27
127
42
